17	4
31	24	20	25	
0	0	0	0	0	3	2	3	4	
10	0	5	2	3	2	15	17	
7	7	0	2	7	2	6	8	
7	8	10	4	4	3	5	7	17	
5	2	1	0	0	1	17	
175	10	1	0	0	1	15	
200	9	5	1	2	1	17	
75	3	8	1	6	3	9	10	13	
25	1	4	8	9	2	12	14	
250	2	7	10	4	2	11	17	
225	0	0	7	2	1	16	
225	8	0	0	9	1	17	
3	9	6	3	6	3	16	17	17	
4	8	10	3	8	1	17	
9	1	6	5	0	3	17	17	17	
5	4	0	2	9	1	17	
0	0	0	0	0	0	
